id: 1226
name: ns1758913
group: miplib2010
method: 2

Gurobi 7.0.2 (linux64, Matlab) logging started Tue Mar 27 05:46:51 2018


Gurobi 7.0.2 (linux64) logging started Tue Mar 27 05:46:51 2018

Optimize a model with 624166 rows, 17956 columns and 1283444 nonzeros
Coefficient statistics:
  Matrix range     [1e+00, 3e+03]
  Objective range  [3e-01, 7e-01]
  Bounds range     [1e+00, 1e+00]
  RHS range        [1e+00, 5e+00]
Presolve removed 132 rows and 8976 columns
Presolve time: 0.48s
Presolved: 17824 rows, 633012 columns, 1283314 nonzeros

Ordering time: 0.28s

Barrier statistics:
 Dense cols : 265
 Free vars  : 133
 AA' NZ     : 6.506e+05
 Factor NZ  : 2.314e+06 (roughly 300 MBytes of memory)
 Factor Ops : 4.518e+08 (less than 1 second per iteration)
 Threads    : 4

                  Objective                Residual
Iter       Primal          Dual         Primal    Dual     Compl     Time
   0  -7.03878518e+07 -0.00000000e+00  1.31e+01 2.56e+02  1.48e+02     1s
   1  -4.88083393e+07  4.13476360e+03  8.70e+00 3.75e+02  1.00e+02     1s
   2  -3.45611020e+07 -4.91222152e+02  5.69e+00 2.09e+02  6.38e+01     1s
   3  -1.91566120e+07 -1.43091495e+03  2.81e+00 1.45e+02  3.44e+01     1s
   4  -1.29385253e+07 -1.66955171e+03  1.81e+00 1.05e+02  2.28e+01     2s
   5  -6.73231160e+06 -1.95774345e+03  8.53e-01 5.18e+01  1.13e+01     2s
   6  -4.14322413e+06 -1.95998252e+03  5.03e-01 3.78e+01  6.86e+00     2s
   7  -1.38000594e+06 -1.81447279e+03  1.48e-01 2.09e+01  2.28e+00     2s
   8  -8.33434192e+04 -1.37314261e+03  6.16e-03 6.48e+00  1.60e-01     2s
   9  -5.80003121e+03 -1.18513553e+03  7.74e-05 1.11e+00  1.18e-02     2s
  10  -3.96772853e+03 -1.25157427e+03  4.03e-05 4.99e-01  6.16e-03     2s
  11  -2.88542790e+03 -1.28317248e+03  2.03e-05 4.15e-01  3.98e-03     2s
  12  -2.48639178e+03 -1.36884386e+03  1.28e-05 3.27e-01  2.82e-03     2s
  13  -2.28854127e+03 -1.39613418e+03  9.43e-06 2.89e-01  2.32e-03     2s
  14  -2.22406539e+03 -1.40111646e+03  8.53e-06 2.77e-01  2.17e-03     3s
  15  -2.09749207e+03 -1.43260563e+03  6.58e-06 2.28e-01  1.75e-03     3s
  16  -1.98131265e+03 -1.45417032e+03  5.04e-06 1.71e-01  1.34e-03     3s
  17  -1.78329450e+03 -1.48473420e+03  2.50e-06 9.98e-02  7.45e-04     3s
  18  -1.70256387e+03 -1.49015046e+03  1.65e-06 8.42e-02  5.57e-04     3s
  19  -1.66531650e+03 -1.50163726e+03  1.29e-06 3.29e-02  3.38e-04     3s
  20  -1.62191841e+03 -1.50157013e+03  8.99e-07 2.38e-02  2.41e-04     3s
  21  -1.58004978e+03 -1.50104710e+03  5.34e-07 7.42e-03  1.34e-04     3s
  22  -1.53171077e+03 -1.50092203e+03  1.96e-07 2.72e-03  4.96e-05     3s
  23  -1.51875145e+03 -1.50088478e+03  1.09e-07 5.02e-04  2.77e-05     3s
  24  -1.51710835e+03 -1.50098591e+03  9.83e-08 4.36e-04  2.50e-05     3s
  25  -1.51638532e+03 -1.50100568e+03  9.37e-08 4.19e-04  2.39e-05     4s
  26  -1.51452152e+03 -1.50105999e+03  8.24e-08 3.71e-04  2.09e-05     4s
  27  -1.51328307e+03 -1.50111757e+03  7.45e-08 3.21e-04  1.88e-05     4s
  28  -1.51243371e+03 -1.50120214e+03  6.92e-08 2.69e-04  1.74e-05     4s
  29  -1.51174393e+03 -1.50116627e+03  6.47e-08 2.64e-04  1.64e-05     4s
  30  -1.50937467e+03 -1.50119999e+03  4.91e-08 2.24e-04  1.26e-05     4s
  31  -1.50238662e+03 -1.50116778e+03  7.02e-09 3.56e-05  1.87e-06     4s
  32  -1.50122647e+03 -1.50118305e+03  5.56e-11 1.77e-07  6.67e-08     4s
  33  -1.50118326e+03 -1.50118326e+03  2.00e-15 6.09e-12  2.39e-12     4s

Barrier solved model in 33 iterations and 4.37 seconds
Optimal objective -1.50118326e+03

Crossover log...

    9286 DPushes remaining with DInf 1.1610988e-05                 5s
    5527 DPushes remaining with DInf 1.1610988e-05                10s
    2732 DPushes remaining with DInf 1.1610988e-05                15s
     384 DPushes remaining with DInf 1.1610988e-05                20s
       0 DPushes remaining with DInf 2.9522190e-11                21s

       0 PPushes remaining with PInf 0.0000000e+00                21s

  Push phase complete: Pinf 0.0000000e+00, Dinf 2.9522190e-11     21s

Iteration    Objective       Primal Inf.    Dual Inf.      Time
    8204   -1.5011833e+03   0.000000e+00   0.000000e+00     21s
    8204   -1.5011833e+03   0.000000e+00   0.000000e+00     21s

Solved in 8204 iterations and 21.46 seconds
Optimal objective -1.501183256e+03
status: OPTIMAL
